51
1 0 2
2 0 8
2 1 15
3 0 4
3 1 20
3 2 20
4 0 7
4 1 27
4 2 2
4 3 9
5 0 21
5 1 20
5 2 2
5 3 25
5 4 11
6 0 13
6 1 1
6 2 23
6 3 6
6 4 18
6 5 12
7 0 2
7 1 17
7 2 14
7 3 23
7 4 7
7 5 20
7 6 12
8 0 4
8 1 20
8 2 12
8 3 8
8 4 19
8 5 22
8 6 16
8 7 3
9 0 5
9 1 9
9 2 18
9 3 22
9 4 22
9 5 1
9 6 4
9 7 22
9 8 4
10 0 3
10 1 3
10 2 10
10 3 14
10 4 12
10 5 20
10 6 23
10 7 8
10 8 24
10 9 11
11 0 12
11 1 12
11 2 26
11 3 20
11 4 1
11 5 4
11 6 17
11 7 24
11 8 6
11 9 24
11 10 7
12 0 23
12 1 10
12 2 13
12 3 6
12 4 8
12 5 27
12 6 10
12 7 23
12 8 1
12 9 27
12 10 22
12 11 3
13 0 24
13 1 21
13 2 5
13 3 14
13 4 11
13 5 24
13 6 2
13 7 23
13 8 6
13 9 19
13 10 11
13 11 27
13 12 11
14 0 5
14 1 1
14 2 21
14 3 5
14 4 3
14 5 18
14 6 25
14 7 10
14 8 17
14 9 19
14 10 17
14 11 25
14 12 26
14 13 14
15 0 23
15 1 13
15 2 21
15 3 15
15 4 24
15 5 1
15 6 2
15 7 17
15 8 19
15 9 23
15 10 26
15 11 25
15 12 12
15 13 15
15 14 1
16 0 9
16 1 5
16 2 22
16 3 6
16 4 24
16 5 5
16 6 26
16 7 8
16 8 2
16 9 22
16 10 18
16 11 27
16 12 13
16 13 2
16 14 14
16 15 10
17 0 16
17 1 16
17 2 22
17 3 22
17 4 14
17 5 1
17 6 9
17 7 9
17 8 10
17 9 15
17 10 20
17 11 13
17 12 15
17 13 2
17 14 18
17 15 25
17 16 5
18 0 27
18 1 22
18 2 16
18 3 11
18 4 18
18 5 25
18 6 9
18 7 5
18 8 7
18 9 24
18 10 15
18 11 5
18 12 7
18 13 11
18 14 18
18 15 8
18 16 17
18 17 18
19 0 16
19 1 15
19 2 12
19 3 4
19 4 17
19 5 25
19 6 10
19 7 24
19 8 13
19 9 10
19 10 7
19 11 17
19 12 13
19 13 17
19 14 3
19 15 3
19 16 7
19 17 27
19 18 17
20 0 24
20 1 21
20 2 1
20 3 15
20 4 18
20 5 20
20 6 21
20 7 9
20 8 6
20 9 11
20 10 2
20 11 25
20 12 27
20 13 26
20 14 2
20 15 13
20 16 12
20 17 20
20 18 26
20 19 12
21 0 1
21 1 5
21 2 12
21 3 13
21 4 12
21 5 21
21 6 20
21 7 1
21 8 5
21 9 5
21 10 19
21 11 9
21 12 19
21 13 13
21 14 23
21 15 6
21 16 8
21 17 25
21 18 26
21 19 17
21 20 27
22 0 1
22 1 23
22 2 17
22 3 5
22 4 14
22 5 7
22 6 26
22 7 20
22 8 15
22 9 4
22 10 22
22 11 7
22 12 17
22 13 16
22 14 13
22 15 24
22 16 12
22 17 7
22 18 13
22 19 13
22 20 2
22 21 9
23 0 13
23 1 10
23 2 6
23 3 23
23 4 24
23 5 18
23 6 1
23 7 4
23 8 2
23 9 2
23 10 7
23 11 3
23 12 7
23 13 25
23 14 8
23 15 2
23 16 7
23 17 8
23 18 17
23 19 9
23 20 19
23 21 17
23 22 26
24 0 10
24 1 26
24 2 19
24 3 3
24 4 16
24 5 3
24 6 9
24 7 18
24 8 13
24 9 25
24 10 3
24 11 8
24 12 12
24 13 15
24 14 10
24 15 1
24 16 14
24 17 17
24 18 8
24 19 17
24 20 3
24 21 16
24 22 12
24 23 5
25 0 6
25 1 4
25 2 26
25 3 22
25 4 15
25 5 1
25 6 12
25 7 6
25 8 3
25 9 26
25 10 15
25 11 4
25 12 20
25 13 22
25 14 27
25 15 12
25 16 12
25 17 27
25 18 7
25 19 26
25 20 6
25 21 5
25 22 20
25 23 9
25 24 2
26 0 3
26 1 27
26 2 2
26 3 20
26 4 25
26 5 8
26 6 16
26 7 5
26 8 4
26 9 12
26 10 19
26 11 25
26 12 1
26 13 7
26 14 21
26 15 27
26 16 15
26 17 3
26 18 26
26 19 12
26 20 13
26 21 19
26 22 1
26 23 12
26 24 2
26 25 12
27 0 26
27 1 27
27 2 9
27 3 20
27 4 15
27 5 18
27 6 12
27 7 23
27 8 11
27 9 14
27 10 20
27 11 17
27 12 22
27 13 8
27 14 6
27 15 1
27 16 3
27 17 24
27 18 17
27 19 23
27 20 20
27 21 27
27 22 6
27 23 1
27 24 18
27 25 5
27 26 10
28 0 19
28 1 23
28 2 13
28 3 4
28 4 15
28 5 3
28 6 19
28 7 15
28 8 6
28 9 24
28 10 26
28 11 9
28 12 6
28 13 25
28 14 23
28 15 5
28 16 3
28 17 19
28 18 22
28 19 4
28 20 24
28 21 19
28 22 1
28 23 5
28 24 7
28 25 21
28 26 26
28 27 13
29 0 26
29 1 16
29 2 3
29 3 18
29 4 8
29 5 14
29 6 13
29 7 13
29 8 19
29 9 24
29 10 19
29 11 27
29 12 19
29 13 17
29 14 14
29 15 20
29 16 24
29 17 23
29 18 21
29 19 20
29 20 25
29 21 4
29 22 23
29 23 1
29 24 26
29 25 15
29 26 8
29 27 22
29 28 23
30 0 8
30 1 20
30 2 11
30 3 17
30 4 19
30 5 6
30 6 2
30 7 23
30 8 14
30 9 7
30 10 23
30 11 12
30 12 19
30 13 13
30 14 27
30 15 18
30 16 23
30 17 22
30 18 13
30 19 9
30 20 24
30 21 5
30 22 12
30 23 22
30 24 14
30 25 11
30 26 2
30 27 1
30 28 14
30 29 24
31 0 1
31 1 10
31 2 8
31 3 27
31 4 3
31 5 26
31 6 9
31 7 10
31 8 8
31 9 23
31 10 17
31 11 16
31 12 8
31 13 17
31 14 23
31 15 27
31 16 11
31 17 9
31 18 20
31 19 10
31 20 17
31 21 14
31 22 21
31 23 23
31 24 21
31 25 7
31 26 10
31 27 15
31 28 23
31 29 21
31 30 25
32 0 12
32 1 9
32 2 25
32 3 16
32 4 13
32 5 9
32 6 23
32 7 16
32 8 5
32 9 17
32 10 22
32 11 13
32 12 7
32 13 17
32 14 11
32 15 15
32 16 13
32 17 9
32 18 24
32 19 7
32 20 15
32 21 6
32 22 5
32 23 24
32 24 9
32 25 25
32 26 6
32 27 22
32 28 6
32 29 26
32 30 20
32 31 1
33 0 22
33 1 16
33 2 26
33 3 19
33 4 22
33 5 27
33 6 13
33 7 24
33 8 6
33 9 10
33 10 16
33 11 3
33 12 26
33 13 24
33 14 13
33 15 25
33 16 15
33 17 17
33 18 12
33 19 19
33 20 24
33 21 16
33 22 17
33 23 15
33 24 3
33 25 13
33 26 13
33 27 6
33 28 14
33 29 15
33 30 11
33 31 16
33 32 12
34 0 17
34 1 11
34 2 27
34 3 21
34 4 16
34 5 4
34 6 13
34 7 24
34 8 13
34 9 2
34 10 13
34 11 15
34 12 25
34 13 26
34 14 7
34 15 8
34 16 9
34 17 26
34 18 2
34 19 22
34 20 2
34 21 25
34 22 23
34 23 18
34 24 24
34 25 12
34 26 14
34 27 13
34 28 22
34 29 7
34 30 7
34 31 27
34 32 23
34 33 19
35 0 16
35 1 3
35 2 23
35 3 12
35 4 1
35 5 17
35 6 27
35 7 12
35 8 27
35 9 24
35 10 25
35 11 10
35 12 15
35 13 6
35 14 7
35 15 15
35 16 21
35 17 26
35 18 13
35 19 24
35 20 26
35 21 9
35 22 26
35 23 9
35 24 25
35 25 7
35 26 14
35 27 20
35 28 10
35 29 22
35 30 18
35 31 20
35 32 14
35 33 21
35 34 7
36 0 3
36 1 4
36 2 22
36 3 20
36 4 4
36 5 1
36 6 25
36 7 25
36 8 23
36 9 6
36 10 8
36 11 14
36 12 5
36 13 2
36 14 1
36 15 16
36 16 2
36 17 19
36 18 13
36 19 15
36 20 1
36 21 12
36 22 5
36 23 17
36 24 9
36 25 6
36 26 17
36 27 2
36 28 25
36 29 17
36 30 19
36 31 14
36 32 7
36 33 22
36 34 21
36 35 16
37 0 25
37 1 14
37 2 22
37 3 11
37 4 27
37 5 13
37 6 2
37 7 3
37 8 26
37 9 16
37 10 22
37 11 19
37 12 22
37 13 5
37 14 13
37 15 24
37 16 10
37 17 7
37 18 19
37 19 20
37 20 15
37 21 21
37 22 18
37 23 2
37 24 8
37 25 21
37 26 3
37 27 5
37 28 8
37 29 1
37 30 26
37 31 8
37 32 22
37 33 12
37 34 22
37 35 18
37 36 1
38 0 22
38 1 15
38 2 9
38 3 2
38 4 26
38 5 9
38 6 4
38 7 10
38 8 5
38 9 22
38 10 5
38 11 24
38 12 13
38 13 11
38 14 16
38 15 1
38 16 2
38 17 21
38 18 13
38 19 10
38 20 18
38 21 10
38 22 2
38 23 26
38 24 10
38 25 22
38 26 21
38 27 5
38 28 8
38 29 11
38 30 15
38 31 21
38 32 19
38 33 10
38 34 11
38 35 21
38 36 5
38 37 23
39 0 25
39 1 20
39 2 24
39 3 27
39 4 7
39 5 2
39 6 13
39 7 4
39 8 18
39 9 15
39 10 23
39 11 11
39 12 2
39 13 12
39 14 2
39 15 27
39 16 24
39 17 11
39 18 11
39 19 26
39 20 21
39 21 23
39 22 19
39 23 7
39 24 23
39 25 17
39 26 1
39 27 20
39 28 26
39 29 12
39 30 9
39 31 20
39 32 2
39 33 24
39 34 3
39 35 17
39 36 25
39 37 7
39 38 14
40 0 26
40 1 20
40 2 27
40 3 1
40 4 16
40 5 13
40 6 8
40 7 17
40 8 24
40 9 19
40 10 4
40 11 5
40 12 1
40 13 9
40 14 27
40 15 1
40 16 10
40 17 24
40 18 20
40 19 17
40 20 16
40 21 18
40 22 19
40 23 26
40 24 21
40 25 9
40 26 19
40 27 5
40 28 14
40 29 17
40 30 20
40 31 8
40 32 7
40 33 9
40 34 12
40 35 6
40 36 1
40 37 12
40 38 15
40 39 6
41 0 3
41 1 14
41 2 4
41 3 1
41 4 27
41 5 12
41 6 7
41 7 18
41 8 27
41 9 2
41 10 25
41 11 22
41 12 12
41 13 17
41 14 8
41 15 18
41 16 26
41 17 16
41 18 1
41 19 5
41 20 18
41 21 26
41 22 21
41 23 12
41 24 18
41 25 7
41 26 5
41 27 9
41 28 4
41 29 15
41 30 12
41 31 17
41 32 4
41 33 21
41 34 24
41 35 23
41 36 23
41 37 11
41 38 19
41 39 23
41 40 18
42 0 9
42 1 19
42 2 26
42 3 13
42 4 24
42 5 8
42 6 18
42 7 18
42 8 13
42 9 18
42 10 18
42 11 5
42 12 3
42 13 15
42 14 2
42 15 5
42 16 8
42 17 21
42 18 1
42 19 27
42 20 17
42 21 27
42 22 23
42 23 19
42 24 24
42 25 8
42 26 16
42 27 24
42 28 12
42 29 27
42 30 24
42 31 9
42 32 19
42 33 10
42 34 25
42 35 21
42 36 6
42 37 25
42 38 7
42 39 15
42 40 23
42 41 14
43 0 1
43 1 14
43 2 12
43 3 11
43 4 6
43 5 5
43 6 11
43 7 1
43 8 9
43 9 11
43 10 8
43 11 1
43 12 23
43 13 26
43 14 22
43 15 24
43 16 3
43 17 18
43 18 7
43 19 9
43 20 27
43 21 9
43 22 24
43 23 2
43 24 19
43 25 26
43 26 8
43 27 22
43 28 12
43 29 20
43 30 10
43 31 10
43 32 7
43 33 9
43 34 3
43 35 16
43 36 14
43 37 12
43 38 17
43 39 2
43 40 1
43 41 2
43 42 16
44 0 4
44 1 1
44 2 13
44 3 15
44 4 19
44 5 8
44 6 1
44 7 14
44 8 10
44 9 17
44 10 9
44 11 23
44 12 18
44 13 24
44 14 17
44 15 16
44 16 22
44 17 10
44 18 20
44 19 25
44 20 8
44 21 8
44 22 17
44 23 13
44 24 15
44 25 18
44 26 3
44 27 11
44 28 11
44 29 12
44 30 11
44 31 10
44 32 22
44 33 19
44 34 7
44 35 15
44 36 10
44 37 26
44 38 2
44 39 11
44 40 13
44 41 3
44 42 16
44 43 2
45 0 26
45 1 5
45 2 3
45 3 14
45 4 7
45 5 24
45 6 15
45 7 9
45 8 9
45 9 14
45 10 19
45 11 19
45 12 21
45 13 25
45 14 24
45 15 2
45 16 22
45 17 16
45 18 18
45 19 27
45 20 10
45 21 18
45 22 21
45 23 15
45 24 6
45 25 4
45 26 9
45 27 4
45 28 16
45 29 1
45 30 18
45 31 13
45 32 17
45 33 1
45 34 18
45 35 10
45 36 20
45 37 3
45 38 17
45 39 21
45 40 19
45 41 12
45 42 6
45 43 5
45 44 25
46 0 20
46 1 25
46 2 14
46 3 15
46 4 4
46 5 2
46 6 17
46 7 27
46 8 18
46 9 26
46 10 23
46 11 4
46 12 18
46 13 19
46 14 16
46 15 10
46 16 26
46 17 21
46 18 15
46 19 6
46 20 2
46 21 9
46 22 15
46 23 11
46 24 25
46 25 26
46 26 8
46 27 23
46 28 7
46 29 9
46 30 8
46 31 24
46 32 4
46 33 24
46 34 19
46 35 9
46 36 16
46 37 16
46 38 1
46 39 26
46 40 3
46 41 9
46 42 23
46 43 21
46 44 21
46 45 11
47 0 17
47 1 3
47 2 24
47 3 16
47 4 8
47 5 8
47 6 18
47 7 4
47 8 5
47 9 20
47 10 14
47 11 2
47 12 9
47 13 10
47 14 2
47 15 13
47 16 17
47 17 18
47 18 11
47 19 27
47 20 3
47 21 7
47 22 27
47 23 7
47 24 24
47 25 9
47 26 10
47 27 26
47 28 19
47 29 14
47 30 15
47 31 6
47 32 22
47 33 23
47 34 18
47 35 11
47 36 9
47 37 9
47 38 10
47 39 3
47 40 18
47 41 20
47 42 24
47 43 1
47 44 10
47 45 3
47 46 22
48 0 17
48 1 23
48 2 15
48 3 13
48 4 3
48 5 8
48 6 26
48 7 13
48 8 2
48 9 14
48 10 8
48 11 13
48 12 13
48 13 22
48 14 12
48 15 15
48 16 10
48 17 24
48 18 11
48 19 21
48 20 3
48 21 22
48 22 22
48 23 19
48 24 5
48 25 8
48 26 27
48 27 11
48 28 17
48 29 10
48 30 5
48 31 15
48 32 8
48 33 24
48 34 5
48 35 15
48 36 17
48 37 14
48 38 17
48 39 17
48 40 25
48 41 6
48 42 27
48 43 15
48 44 6
48 45 8
48 46 11
48 47 6
49 0 14
49 1 7
49 2 11
49 3 16
49 4 5
49 5 19
49 6 11
49 7 10
49 8 7
49 9 17
49 10 14
49 11 11
49 12 4
49 13 7
49 14 27
49 15 1
49 16 10
49 17 21
49 18 10
49 19 19
49 20 17
49 21 3
49 22 26
49 23 8
49 24 23
49 25 25
49 26 19
49 27 12
49 28 3
49 29 17
49 30 5
49 31 14
49 32 25
49 33 17
49 34 6
49 35 3
49 36 22
49 37 10
49 38 17
49 39 1
49 40 12
49 41 1
49 42 27
49 43 16
49 44 19
49 45 16
49 46 10
49 47 8
49 48 12
50 0 26
50 1 10
50 2 5
50 3 25
50 4 4
50 5 7
50 6 21
50 7 23
50 8 19
50 9 19
50 10 3
50 11 21
50 12 1
50 13 8
50 14 12
50 15 11
50 16 11
50 17 3
50 18 9
50 19 24
50 20 6
50 21 8
50 22 18
50 23 20
50 24 10
50 25 19
50 26 17
50 27 26
50 28 27
50 29 9
50 30 3
50 31 16
50 32 26
50 33 19
50 34 4
50 35 27
50 36 25
50 37 13
50 38 18
50 39 2
50 40 6
50 41 14
50 42 9
50 43 15
50 44 4
50 45 4
50 46 12
50 47 11
50 48 8
50 49 7
